p tdp 50 49
40 48
29 3
8 5
41 36
27 50
18 19
21 22
44 36
4 7
27 28
10 5
21 9
42 38
24 47
49 38
34 2
30 45
5 15
27 6
43 47
14 23
2 11
31 3
46 33
21 17
19 48
30 44
7 26
21 26
37 34
35 3
31 1
32 39
11 20
20 13
46 19
13 25
18 31
44 27
14 13
47 18
12 21
10 39
10 17
40 38
20 16
18 45
15 34
1 11
